db/data/26190589132507770916413214921525530091.z3.out
-------------------
2500.144527718
